10 324 1079 1 4
11 1144 4190 1 27
12 2419 9964 1 47
13 8926 40084 1 168
14 4074 22802 1 84
15 12369 72218 1 271
16 36054 226265 1 837
17 155835 1011269 1 4046
18 411978 2562472 1 12573
19 660023 4511967 1 23430
20 1644613 12358622 1 61331